50
120
100
98
97
95
93
91
90
87
85
83
83
81
81
79
76
74
74
73
73
71
71
70
67
67
66
62
62
60
57
54
54
53
52
51
51
50
49
48
48
45
44
44
40
36
34
32
31
27
26
20
